1388.79 0
0 175 46 176 102 8 178 78 19 70 128 123 13 83 58 0
0 117 182 49 63 107 24 144 74 104 67 159 0
0 54 30 98 45 111 87 4 127 0
0 168 50 169 189 131 80 10 77 165 38 119 129 71 81 0
0 151 55 44 32 161 9 39 109 57 12 0
0 3 181 147 73 18 146 92 135 145 116 62 23 183 198 53 195 105 0
0 120 171 47 155 174 82 121 173 21 172 139 152 0
0 100 150 52 11 170 164 85 134 84 14 133 177 35 0
0 79 154 124 20 166 122 36 138 37 88 59 48 0
0 42 68 143 41 90 185 89 137 113 142 91 141 22 0
0 158 197 136 199 43 190 115 160 184 192 16 0
0 126 17 130 40 76 0
0 157 2 101 28 64 94 140 114 156 93 186 86 112 0
0 26 108 69 180 132 7 51 149 60 0
0 95 106 72 118 56 25 148 163 31 162 75 110 97 187 0
0 125 29 103 5 15 153 27 99 179 167 65 34 0
0 188 96 33 193 194 191 1 196 66 61 6 0
